instances/knapsack/discrete/knapsack_80_12.kp
18019
80
354

14 1.4 59
15 1.5 59
57 5.7 13
18 1.8 5
95 9.5 50
8 0.8 30
56 5.6 58
78 7.8 72
52 5.2 63
29 2.9 99
30 3.0 92
66 6.6 72
15 1.5 72
11 1.1 51
35 3.5 16
31 3.1 45
60 6.0 71
91 9.1 63
100 10.0 15
45 4.5 78
80 8.0 26
62 6.2 96
7 0.7 5
29 2.9 29
51 5.1 70
19 1.9 59
73 7.3 9
34 3.4 20
28 2.8 79
78 7.8 5
4 0.4 66
18 1.8 49
10 1.0 97
64 6.4 84
39 3.9 88
36 3.6 50
31 3.1 18
91 9.1 88
31 3.1 15
69 6.9 16
54 5.4 77
64 6.4 62
57 5.7 94
52 5.2 72
98 9.8 55
33 3.3 8
8 0.8 73
72 7.2 57
18 1.8 33
75 7.5 54
89 8.9 52
43 4.3 11
100 10.0 8
59 5.9 26
83 8.3 21
86 8.6 55
20 2.0 47
9 0.9 89
3 0.3 81
17 1.7 100
3 0.3 89
21 2.1 27
62 6.2 14
65 6.5 2
50 5.0 47
3 0.3 54
75 7.5 94
93 9.3 30
43 4.3 89
52 5.2 78
64 6.4 18
40 4.0 88
5 0.5 78
34 3.4 2
6 0.6 39
51 5.1 35
81 8.1 55
66 6.6 54
35 3.5 45
73 7.3 76

57532
384

[0.36 0.67 0.86 4.25 3.7 3.8 1.92 0.75 1.79 3.62 2.55 1.81 1.41 0.59 1.87 1.19 4.71 2.18 2.44 1.64 4.36 4.21 3.62 2.66 0.25 2.98 1.94 2.91 2.84 2.8 2.63 0.38 3.92 1.56 4.76 2.4 2.21 0.35 3.68 3.46 1.7 4.56 4.38 0.06 2.28 1.59 1.03 4.42 3.94 1.2 3.57 0.69 1.91 1.41 4.59 1.19 2.31 2.52 2.85 2.59 0.89 0.65 2.58 0.08 0.87 0.19 0.12 1.06 0.15 3.66 2.02 2.62 1.39 2.58 3.49 3.75 0.46 0.35 2.07 0.74]

[5 89 7 76 5 11 62 65 38 43 29 4 57 33 66 38 98 41 2 67 66 45 37 76 86 97 35 81 31 52 51 89 41 34 25 10 9 86 49 48 100 63 51 55 8 76 11 91 28 53 68 21 98 93 94 33 82 52 81 7 86 68 93 80 33 21 82 60 73 79 27 67 7 16 9 58 84 36 10 4]
