instances/knapsack/discrete_knapsack_uncertainty/knapsack_80_12.lp
\ Model knapsack_80_12
\ LP format - for model browsing. Use MPS format to capture full model detail.
\ Signature: 0xf86d0bbf74a39a5e
Minimize
  - 75 x[0] - 36 x[1] - 41 x[2] - 45 x[3] - 19 x[4] - 18 x[5] - 67 x[6]
   - 49 x[7] - 20 x[8] - 44 x[9] - 32 x[10] - 12 x[11] - 24 x[12]
   - 99 x[13] - 56 x[14] - 73 x[15] - 99 x[16] - 83 x[17] - 52 x[18]
   - 87 x[19] - 55 x[20] - 44 x[21] - 9 x[22] - 53 x[23] - 78 x[24]
   - 92 x[25] - 93 x[26] - 85 x[27] - 51 x[28] - 78 x[29] - 34 x[30]
   - 45 x[31] - 85 x[32] - 76 x[33] - 45 x[34] - 74 x[35] - 38 x[36]
   - 76 x[37] - 84 x[38] - 53 x[39] - 61 x[40] - 55 x[41] - 51 x[42]
   - 8 x[43] - 60 x[44] - 84 x[45] - 14 x[46] - 70 x[47] - 18 x[48]
   - 83 x[49] - 24 x[50] - 48 x[51] - 96 x[52] - 58 x[53] - 13 x[54]
   - 11 x[55] - 12 x[56] - 85 x[57] - 61 x[58] - 52 x[59] - 77 x[60]
   - 7 x[61] - 87 x[62] - 63 x[63] - 64 x[64] - 50 x[65] - 62 x[66]
   - 75 x[67] - 58 x[68] - 35 x[69] - 34 x[70] - 56 x[71] - 50 x[72]
   - 15 x[73] - 24 x[74] - 95 x[75] - 19 x[76] - 82 x[77] - 97 x[78]
   - 9 x[79]
Subject To
 primal_upper: 37 x[0] + 73 x[1] + 3 x[2] + 8 x[3] + 65 x[4] + 43 x[5]
   + 14 x[6] + 97 x[7] + 70 x[8] + 15 x[9] + 13 x[10] + 92 x[11] + 81 x[12]
   + 53 x[13] + 62 x[14] + 94 x[15] + 2 x[16] + 65 x[17] + 18 x[18]
   + 55 x[19] + 54 x[20] + 85 x[21] + 9 x[22] + 96 x[23] + 46 x[24]
   + 5 x[25] + 43 x[26] + 65 x[27] + 47 x[28] + 56 x[29] + 99 x[30]
   + 65 x[31] + 69 x[32] + 38 x[33] + 29 x[34] + 98 x[35] + 61 x[36]
   + 46 x[37] + 81 x[38] + 40 x[39] + 36 x[40] + 35 x[41] + 83 x[42]
   + 59 x[43] + 76 x[44] + 48 x[45] + 67 x[46] + 99 x[47] + 48 x[48]
   + 73 x[49] + 72 x[50] + 77 x[51] + 10 x[52] + 49 x[53] + 46 x[54]
   + 29 x[55] + 10 x[56] + 60 x[57] + 85 x[58] + 31 x[59] + 42 x[60]
   + 36 x[61] + 49 x[62] + 96 x[63] + 65 x[64] + 33 x[65] + 86 x[66]
   + 60 x[67] + 81 x[68] + 35 x[69] + 87 x[70] + 7 x[71] + 99 x[72]
   + 8 x[73] + 5 x[74] + 62 x[75] + 48 x[76] + 92 x[77] + 6 x[78]
   + 40 x[79] + 3.7 r[0] + 7.3 r[1] + 0.3 r[2] + 0.8 r[3] + 6.5 r[4]
   + 4.3 r[5] + 1.4 r[6] + 9.7 r[7] + 7 r[8] + 1.5 r[9] + 1.3 r[10]
   + 9.2 r[11] + 8.1 r[12] + 5.3 r[13] + 6.2 r[14] + 9.4 r[15] + 0.2 r[16]
   + 6.5 r[17] + 1.8 r[18] + 5.5 r[19] + 5.4 r[20] + 8.5 r[21] + 0.9 r[22]
   + 9.6 r[23] + 4.6 r[24] + 0.5 r[25] + 4.3 r[26] + 6.5 r[27] + 4.7 r[28]
   + 5.6 r[29] + 9.9 r[30] + 6.5 r[31] + 6.9 r[32] + 3.8 r[33] + 2.9 r[34]
   + 9.8 r[35] + 6.1 r[36] + 4.6 r[37] + 8.1 r[38] + 4 r[39] + 3.6 r[40]
   + 3.5 r[41] + 8.3 r[42] + 5.9 r[43] + 7.6 r[44] + 4.8 r[45] + 6.7 r[46]
   + 9.9 r[47] + 4.8 r[48] + 7.3 r[49] + 7.2 r[50] + 7.7 r[51] + r[52]
   + 4.9 r[53] + 4.6 r[54] + 2.9 r[55] + r[56] + 6 r[57] + 8.5 r[58]
   + 3.1 r[59] + 4.2 r[60] + 3.6 r[61] + 4.9 r[62] + 9.6 r[63] + 6.5 r[64]
   + 3.3 r[65] + 8.6 r[66] + 6 r[67] + 8.1 r[68] + 3.5 r[69] + 8.7 r[70]
   + 0.7 r[71] + 9.9 r[72] + 0.8 r[73] + 0.5 r[74] + 6.2 r[75] + 4.8 r[76]
   + 9.2 r[77] + 0.6 r[78] + 4 r[79] <= 402
 primal_lower: 0.5067357926266141 x[0] + 1.016361638942301 x[1]
   + 2.37582506769956 x[2] + 2.545287494520716 x[3]
   + 0.9953879239856643 x[4] + 0.8219155090570115 x[5]
   + 0.054162734076231 x[6] + 1.933110551908643 x[7]
   + 1.85156306233445 x[8] + 4.346678382896262 x[9]
   + 4.23274148847189 x[10] + 1.406084426362514 x[11]
   + 3.876395551517467 x[12] + 0.3153210259807944 x[13]
   + 0.31617580089428 x[14] + 1.321682215922346 x[15]
   + 0.3066614037413917 x[16] + 2.770332393998439 x[17]
   + 0.2801653084445743 x[18] + 0.1644542804464722 x[19]
   + 0.2395311774571462 x[20] + 1.477467675856864 x[21]
   + 3.119747956481666 x[22] + 4.072135747508163 x[23]
   + 2.294853815254438 x[24] + 1.274797239613285 x[25]
   + 1.857443417838348 x[26] + 3.45351564722236 x[27]
   + 4.122313839970337 x[28] + 2.360286404163481 x[29]
   + 1.979566837467181 x[30] + 0.5361474502281488 x[31]
   + 0.2504425282008481 x[32] + 4.803288943006002 x[33]
   + 0.5784450407292067 x[34] + 2.142023831338224 x[35]
   + 1.524183103270889 x[36] + 3.371208803487404 x[37]
   + 4.175239190560609 x[38] + 3.096986681454956 x[39]
   + 2.981610504770074 x[40] + 1.238026125238133 x[41]
   + 0.3546292564818233 x[42] + 0.9860953957926082 x[43]
   + 2.879344627461391 x[44] + 3.77759300635308 x[45]
   + 1.408492783946896 x[46] + 1.475693088472867 x[47]
   + 3.568893964078702 x[48] + 2.993880769758054 x[49]
   + 4.59068686516148 x[50] + 0.539483341984761 x[51]
   + 3.062747629785861 x[52] + 2.301522981699391 x[53]
   + 4.437096588765839 x[54] + 0.9630809881476806 x[55]
   + 4.270525388045519 x[56] + 4.505988720335799 x[57]
   + 1.481644243085847 x[58] + 4.622676039968479 x[59]
   + 2.332510850257548 x[60] + 0.9985495429060763 x[61]
   + 1.577355654452337 x[62] + 4.713823397873196 x[63]
   + 1.958002608430423 x[64] + 1.484511919512607 x[65]
   + 2.418700644669394 x[66] + 1.839332442747307 x[67]
   + 1.62099553249631 x[68] + 1.875246873718325 x[69]
   + 0.0618153236634519 x[70] + 4.613849937385828 x[71]
   + 4.280601484251669 x[72] + 1.311191707698858 x[73]
   + 4.078385220034098 x[74] + 1.0504505120872 x[75]
   + 4.752452258952843 x[76] + 2.15580789752445 x[77]
   + 0.20420590823796 x[78] + 1.096613808493673 x[79] + 42 u[0] + 63 u[1]
   + 77 u[2] + 98 u[3] + 19 u[4] + 96 u[5] + 32 u[6] + 38 u[7] + 88 u[8]
   + 37 u[9] + 78 u[10] + 70 u[11] + 35 u[12] + 11 u[13] + 95 u[14]
   + 59 u[15] + 64 u[16] + 59 u[17] + 32 u[18] + 93 u[19] + 24 u[20]
   + 6 u[21] + 47 u[22] + 13 u[23] + 83 u[24] + 71 u[25] + 97 u[26]
   + 34 u[27] + 12 u[28] + 18 u[29] + 32 u[30] + 94 u[31] + 74 u[32]
   + 12 u[33] + 91 u[34] + 28 u[35] + 91 u[36] + 75 u[37] + 63 u[38]
   + 89 u[39] + 82 u[40] + 48 u[41] + 45 u[42] + 32 u[43] + 30 u[44]
   + 9 u[45] + 96 u[46] + 20 u[47] + 86 u[48] + 59 u[49] + 81 u[50]
   + 19 u[51] + 4 u[52] + 23 u[53] + 3 u[54] + 50 u[55] + 8 u[56]
   + 65 u[57] + 99 u[58] + 73 u[59] + 55 u[60] + 69 u[61] + 18 u[62]
   + 45 u[63] + 74 u[64] + 79 u[65] + 23 u[66] + 89 u[67] + 67 u[68]
   + 12 u[69] + 12 u[70] + 88 u[71] + 25 u[72] + 14 u[73] + 2 u[74]
   + 83 u[75] + 41 u[76] + 58 u[77] + 3 u[78] + 85 u[79] <= 7107
 mccormick1[0]: - u[0] + r[0] <= 0
 mccormick1[1]: - u[1] + r[1] <= 0
 mccormick1[2]: - u[2] + r[2] <= 0
 mccormick1[3]: - u[3] + r[3] <= 0
 mccormick1[4]: - u[4] + r[4] <= 0
 mccormick1[5]: - u[5] + r[5] <= 0
 mccormick1[6]: - u[6] + r[6] <= 0
 mccormick1[7]: - u[7] + r[7] <= 0
 mccormick1[8]: - u[8] + r[8] <= 0
 mccormick1[9]: - u[9] + r[9] <= 0
 mccormick1[10]: - u[10] + r[10] <= 0
 mccormick1[11]: - u[11] + r[11] <= 0
 mccormick1[12]: - u[12] + r[12] <= 0
 mccormick1[13]: - u[13] + r[13] <= 0
 mccormick1[14]: - u[14] + r[14] <= 0
 mccormick1[15]: - u[15] + r[15] <= 0
 mccormick1[16]: - u[16] + r[16] <= 0
 mccormick1[17]: - u[17] + r[17] <= 0
 mccormick1[18]: - u[18] + r[18] <= 0
 mccormick1[19]: - u[19] + r[19] <= 0
 mccormick1[20]: - u[20] + r[20] <= 0
 mccormick1[21]: - u[21] + r[21] <= 0
 mccormick1[22]: - u[22] + r[22] <= 0
 mccormick1[23]: - u[23] + r[23] <= 0
 mccormick1[24]: - u[24] + r[24] <= 0
 mccormick1[25]: - u[25] + r[25] <= 0
 mccormick1[26]: - u[26] + r[26] <= 0
 mccormick1[27]: - u[27] + r[27] <= 0
 mccormick1[28]: - u[28] + r[28] <= 0
 mccormick1[29]: - u[29] + r[29] <= 0
 mccormick1[30]: - u[30] + r[30] <= 0
 mccormick1[31]: - u[31] + r[31] <= 0
 mccormick1[32]: - u[32] + r[32] <= 0
 mccormick1[33]: - u[33] + r[33] <= 0
 mccormick1[34]: - u[34] + r[34] <= 0
 mccormick1[35]: - u[35] + r[35] <= 0
 mccormick1[36]: - u[36] + r[36] <= 0
 mccormick1[37]: - u[37] + r[37] <= 0
 mccormick1[38]: - u[38] + r[38] <= 0
 mccormick1[39]: - u[39] + r[39] <= 0
 mccormick1[40]: - u[40] + r[40] <= 0
 mccormick1[41]: - u[41] + r[41] <= 0
 mccormick1[42]: - u[42] + r[42] <= 0
 mccormick1[43]: - u[43] + r[43] <= 0
 mccormick1[44]: - u[44] + r[44] <= 0
 mccormick1[45]: - u[45] + r[45] <= 0
 mccormick1[46]: - u[46] + r[46] <= 0
 mccormick1[47]: - u[47] + r[47] <= 0
 mccormick1[48]: - u[48] + r[48] <= 0
 mccormick1[49]: - u[49] + r[49] <= 0
 mccormick1[50]: - u[50] + r[50] <= 0
 mccormick1[51]: - u[51] + r[51] <= 0
 mccormick1[52]: - u[52] + r[52] <= 0
 mccormick1[53]: - u[53] + r[53] <= 0
 mccormick1[54]: - u[54] + r[54] <= 0
 mccormick1[55]: - u[55] + r[55] <= 0
 mccormick1[56]: - u[56] + r[56] <= 0
 mccormick1[57]: - u[57] + r[57] <= 0
 mccormick1[58]: - u[58] + r[58] <= 0
 mccormick1[59]: - u[59] + r[59] <= 0
 mccormick1[60]: - u[60] + r[60] <= 0
 mccormick1[61]: - u[61] + r[61] <= 0
 mccormick1[62]: - u[62] + r[62] <= 0
 mccormick1[63]: - u[63] + r[63] <= 0
 mccormick1[64]: - u[64] + r[64] <= 0
 mccormick1[65]: - u[65] + r[65] <= 0
 mccormick1[66]: - u[66] + r[66] <= 0
 mccormick1[67]: - u[67] + r[67] <= 0
 mccormick1[68]: - u[68] + r[68] <= 0
 mccormick1[69]: - u[69] + r[69] <= 0
 mccormick1[70]: - u[70] + r[70] <= 0
 mccormick1[71]: - u[71] + r[71] <= 0
 mccormick1[72]: - u[72] + r[72] <= 0
 mccormick1[73]: - u[73] + r[73] <= 0
 mccormick1[74]: - u[74] + r[74] <= 0
 mccormick1[75]: - u[75] + r[75] <= 0
 mccormick1[76]: - u[76] + r[76] <= 0
 mccormick1[77]: - u[77] + r[77] <= 0
 mccormick1[78]: - u[78] + r[78] <= 0
 mccormick1[79]: - u[79] + r[79] <= 0
 mccormick2[0]: - x[0] + r[0] <= 0
 mccormick2[1]: - x[1] + r[1] <= 0
 mccormick2[2]: - x[2] + r[2] <= 0
 mccormick2[3]: - x[3] + r[3] <= 0
 mccormick2[4]: - x[4] + r[4] <= 0
 mccormick2[5]: - x[5] + r[5] <= 0
 mccormick2[6]: - x[6] + r[6] <= 0
 mccormick2[7]: - x[7] + r[7] <= 0
 mccormick2[8]: - x[8] + r[8] <= 0
 mccormick2[9]: - x[9] + r[9] <= 0
 mccormick2[10]: - x[10] + r[10] <= 0
 mccormick2[11]: - x[11] + r[11] <= 0
 mccormick2[12]: - x[12] + r[12] <= 0
 mccormick2[13]: - x[13] + r[13] <= 0
 mccormick2[14]: - x[14] + r[14] <= 0
 mccormick2[15]: - x[15] + r[15] <= 0
 mccormick2[16]: - x[16] + r[16] <= 0
 mccormick2[17]: - x[17] + r[17] <= 0
 mccormick2[18]: - x[18] + r[18] <= 0
 mccormick2[19]: - x[19] + r[19] <= 0
 mccormick2[20]: - x[20] + r[20] <= 0
 mccormick2[21]: - x[21] + r[21] <= 0
 mccormick2[22]: - x[22] + r[22] <= 0
 mccormick2[23]: - x[23] + r[23] <= 0
 mccormick2[24]: - x[24] + r[24] <= 0
 mccormick2[25]: - x[25] + r[25] <= 0
 mccormick2[26]: - x[26] + r[26] <= 0
 mccormick2[27]: - x[27] + r[27] <= 0
 mccormick2[28]: - x[28] + r[28] <= 0
 mccormick2[29]: - x[29] + r[29] <= 0
 mccormick2[30]: - x[30] + r[30] <= 0
 mccormick2[31]: - x[31] + r[31] <= 0
 mccormick2[32]: - x[32] + r[32] <= 0
 mccormick2[33]: - x[33] + r[33] <= 0
 mccormick2[34]: - x[34] + r[34] <= 0
 mccormick2[35]: - x[35] + r[35] <= 0
 mccormick2[36]: - x[36] + r[36] <= 0
 mccormick2[37]: - x[37] + r[37] <= 0
 mccormick2[38]: - x[38] + r[38] <= 0
 mccormick2[39]: - x[39] + r[39] <= 0
 mccormick2[40]: - x[40] + r[40] <= 0
 mccormick2[41]: - x[41] + r[41] <= 0
 mccormick2[42]: - x[42] + r[42] <= 0
 mccormick2[43]: - x[43] + r[43] <= 0
 mccormick2[44]: - x[44] + r[44] <= 0
 mccormick2[45]: - x[45] + r[45] <= 0
 mccormick2[46]: - x[46] + r[46] <= 0
 mccormick2[47]: - x[47] + r[47] <= 0
 mccormick2[48]: - x[48] + r[48] <= 0
 mccormick2[49]: - x[49] + r[49] <= 0
 mccormick2[50]: - x[50] + r[50] <= 0
 mccormick2[51]: - x[51] + r[51] <= 0
 mccormick2[52]: - x[52] + r[52] <= 0
 mccormick2[53]: - x[53] + r[53] <= 0
 mccormick2[54]: - x[54] + r[54] <= 0
 mccormick2[55]: - x[55] + r[55] <= 0
 mccormick2[56]: - x[56] + r[56] <= 0
 mccormick2[57]: - x[57] + r[57] <= 0
 mccormick2[58]: - x[58] + r[58] <= 0
 mccormick2[59]: - x[59] + r[59] <= 0
 mccormick2[60]: - x[60] + r[60] <= 0
 mccormick2[61]: - x[61] + r[61] <= 0
 mccormick2[62]: - x[62] + r[62] <= 0
 mccormick2[63]: - x[63] + r[63] <= 0
 mccormick2[64]: - x[64] + r[64] <= 0
 mccormick2[65]: - x[65] + r[65] <= 0
 mccormick2[66]: - x[66] + r[66] <= 0
 mccormick2[67]: - x[67] + r[67] <= 0
 mccormick2[68]: - x[68] + r[68] <= 0
 mccormick2[69]: - x[69] + r[69] <= 0
 mccormick2[70]: - x[70] + r[70] <= 0
 mccormick2[71]: - x[71] + r[71] <= 0
 mccormick2[72]: - x[72] + r[72] <= 0
 mccormick2[73]: - x[73] + r[73] <= 0
 mccormick2[74]: - x[74] + r[74] <= 0
 mccormick2[75]: - x[75] + r[75] <= 0
 mccormick2[76]: - x[76] + r[76] <= 0
 mccormick2[77]: - x[77] + r[77] <= 0
 mccormick2[78]: - x[78] + r[78] <= 0
 mccormick2[79]: - x[79] + r[79] <= 0
 mccormick3[0]: x[0] + u[0] - r[0] <= 1
 mccormick3[1]: x[1] + u[1] - r[1] <= 1
 mccormick3[2]: x[2] + u[2] - r[2] <= 1
 mccormick3[3]: x[3] + u[3] - r[3] <= 1
 mccormick3[4]: x[4] + u[4] - r[4] <= 1
 mccormick3[5]: x[5] + u[5] - r[5] <= 1
 mccormick3[6]: x[6] + u[6] - r[6] <= 1
 mccormick3[7]: x[7] + u[7] - r[7] <= 1
 mccormick3[8]: x[8] + u[8] - r[8] <= 1
 mccormick3[9]: x[9] + u[9] - r[9] <= 1
 mccormick3[10]: x[10] + u[10] - r[10] <= 1
 mccormick3[11]: x[11] + u[11] - r[11] <= 1
 mccormick3[12]: x[12] + u[12] - r[12] <= 1
 mccormick3[13]: x[13] + u[13] - r[13] <= 1
 mccormick3[14]: x[14] + u[14] - r[14] <= 1
 mccormick3[15]: x[15] + u[15] - r[15] <= 1
 mccormick3[16]: x[16] + u[16] - r[16] <= 1
 mccormick3[17]: x[17] + u[17] - r[17] <= 1
 mccormick3[18]: x[18] + u[18] - r[18] <= 1
 mccormick3[19]: x[19] + u[19] - r[19] <= 1
 mccormick3[20]: x[20] + u[20] - r[20] <= 1
 mccormick3[21]: x[21] + u[21] - r[21] <= 1
 mccormick3[22]: x[22] + u[22] - r[22] <= 1
 mccormick3[23]: x[23] + u[23] - r[23] <= 1
 mccormick3[24]: x[24] + u[24] - r[24] <= 1
 mccormick3[25]: x[25] + u[25] - r[25] <= 1
 mccormick3[26]: x[26] + u[26] - r[26] <= 1
 mccormick3[27]: x[27] + u[27] - r[27] <= 1
 mccormick3[28]: x[28] + u[28] - r[28] <= 1
 mccormick3[29]: x[29] + u[29] - r[29] <= 1
 mccormick3[30]: x[30] + u[30] - r[30] <= 1
 mccormick3[31]: x[31] + u[31] - r[31] <= 1
 mccormick3[32]: x[32] + u[32] - r[32] <= 1
 mccormick3[33]: x[33] + u[33] - r[33] <= 1
 mccormick3[34]: x[34] + u[34] - r[34] <= 1
 mccormick3[35]: x[35] + u[35] - r[35] <= 1
 mccormick3[36]: x[36] + u[36] - r[36] <= 1
 mccormick3[37]: x[37] + u[37] - r[37] <= 1
 mccormick3[38]: x[38] + u[38] - r[38] <= 1
 mccormick3[39]: x[39] + u[39] - r[39] <= 1
 mccormick3[40]: x[40] + u[40] - r[40] <= 1
 mccormick3[41]: x[41] + u[41] - r[41] <= 1
 mccormick3[42]: x[42] + u[42] - r[42] <= 1
 mccormick3[43]: x[43] + u[43] - r[43] <= 1
 mccormick3[44]: x[44] + u[44] - r[44] <= 1
 mccormick3[45]: x[45] + u[45] - r[45] <= 1
 mccormick3[46]: x[46] + u[46] - r[46] <= 1
 mccormick3[47]: x[47] + u[47] - r[47] <= 1
 mccormick3[48]: x[48] + u[48] - r[48] <= 1
 mccormick3[49]: x[49] + u[49] - r[49] <= 1
 mccormick3[50]: x[50] + u[50] - r[50] <= 1
 mccormick3[51]: x[51] + u[51] - r[51] <= 1
 mccormick3[52]: x[52] + u[52] - r[52] <= 1
 mccormick3[53]: x[53] + u[53] - r[53] <= 1
 mccormick3[54]: x[54] + u[54] - r[54] <= 1
 mccormick3[55]: x[55] + u[55] - r[55] <= 1
 mccormick3[56]: x[56] + u[56] - r[56] <= 1
 mccormick3[57]: x[57] + u[57] - r[57] <= 1
 mccormick3[58]: x[58] + u[58] - r[58] <= 1
 mccormick3[59]: x[59] + u[59] - r[59] <= 1
 mccormick3[60]: x[60] + u[60] - r[60] <= 1
 mccormick3[61]: x[61] + u[61] - r[61] <= 1
 mccormick3[62]: x[62] + u[62] - r[62] <= 1
 mccormick3[63]: x[63] + u[63] - r[63] <= 1
 mccormick3[64]: x[64] + u[64] - r[64] <= 1
 mccormick3[65]: x[65] + u[65] - r[65] <= 1
 mccormick3[66]: x[66] + u[66] - r[66] <= 1
 mccormick3[67]: x[67] + u[67] - r[67] <= 1
 mccormick3[68]: x[68] + u[68] - r[68] <= 1
 mccormick3[69]: x[69] + u[69] - r[69] <= 1
 mccormick3[70]: x[70] + u[70] - r[70] <= 1
 mccormick3[71]: x[71] + u[71] - r[71] <= 1
 mccormick3[72]: x[72] + u[72] - r[72] <= 1
 mccormick3[73]: x[73] + u[73] - r[73] <= 1
 mccormick3[74]: x[74] + u[74] - r[74] <= 1
 mccormick3[75]: x[75] + u[75] - r[75] <= 1
 mccormick3[76]: x[76] + u[76] - r[76] <= 1
 mccormick3[77]: x[77] + u[77] - r[77] <= 1
 mccormick3[78]: x[78] + u[78] - r[78] <= 1
 mccormick3[79]: x[79] + u[79] - r[79] <= 1
Bounds
Binaries
 x[0] x[1] x[2] x[3] x[4] x[5] x[6] x[7] x[8] x[9] x[10] x[11] x[12] x[13]
 x[14] x[15] x[16] x[17] x[18] x[19] x[20] x[21] x[22] x[23] x[24] x[25]
 x[26] x[27] x[28] x[29] x[30] x[31] x[32] x[33] x[34] x[35] x[36] x[37]
 x[38] x[39] x[40] x[41] x[42] x[43] x[44] x[45] x[46] x[47] x[48] x[49]
 x[50] x[51] x[52] x[53] x[54] x[55] x[56] x[57] x[58] x[59] x[60] x[61]
 x[62] x[63] x[64] x[65] x[66] x[67] x[68] x[69] x[70] x[71] x[72] x[73]
 x[74] x[75] x[76] x[77] x[78] x[79] u[0] u[1] u[2] u[3] u[4] u[5] u[6]
 u[7] u[8] u[9] u[10] u[11] u[12] u[13] u[14] u[15] u[16] u[17] u[18] u[19]
 u[20] u[21] u[22] u[23] u[24] u[25] u[26] u[27] u[28] u[29] u[30] u[31]
 u[32] u[33] u[34] u[35] u[36] u[37] u[38] u[39] u[40] u[41] u[42] u[43]
 u[44] u[45] u[46] u[47] u[48] u[49] u[50] u[51] u[52] u[53] u[54] u[55]
 u[56] u[57] u[58] u[59] u[60] u[61] u[62] u[63] u[64] u[65] u[66] u[67]
 u[68] u[69] u[70] u[71] u[72] u[73] u[74] u[75] u[76] u[77] u[78] u[79]
 r[0] r[1] r[2] r[3] r[4] r[5] r[6] r[7] r[8] r[9] r[10] r[11] r[12] r[13]
 r[14] r[15] r[16] r[17] r[18] r[19] r[20] r[21] r[22] r[23] r[24] r[25]
 r[26] r[27] r[28] r[29] r[30] r[31] r[32] r[33] r[34] r[35] r[36] r[37]
 r[38] r[39] r[40] r[41] r[42] r[43] r[44] r[45] r[46] r[47] r[48] r[49]
 r[50] r[51] r[52] r[53] r[54] r[55] r[56] r[57] r[58] r[59] r[60] r[61]
 r[62] r[63] r[64] r[65] r[66] r[67] r[68] r[69] r[70] r[71] r[72] r[73]
 r[74] r[75] r[76] r[77] r[78] r[79]
End
